8 5 4 2 6 9 0 7 5 -1 
7 8 7 10 -1 8 10 2 1 -1 
1 7 0 7 4 4 7 4 0 -1 
3 6 7 4 1 0 3 9 4 -1 
7 3 5 9 6 0 9 6 3 -1 
5 -1 3 4 8 4 4 6 1 -1 
4 10 7 6 8 8 4 2 5 -1 
2 2 9 0 0 10 -1 0 9 -1 
10 9 4 1 -1 9 6 4 8 -1 
-1 4 6 1 5 1 9 8 3 -1 
5 8 -1 10 4 9 10 7 8 -1 
5 -1 7 7 4 9 5 10 9 -1 
5 7 3 9 4 9 10 5 7 -1 
9 1 6 4 8 5 1 5 -1 -1 
1 10 2 1 0 8 6 0 4 -1 
1 -1 2 5 1 10 6 -1 7 -1 
-1 -1 0 1 5 1 3 10 0 -1 
4 -1 0 2 -1 -1 1 7 10 -1 
3 10 2 -1 4 8 -1 2 4 -1 
3 -1 -1 4 3 -1 10 5 1 -1 
